Minimize
	value: tt

Subject to
tt + 2000 s_1_1 > 0
tt - t_1_1 - 2000.000000 s_1_1 > -1995.721300
tt + 2000 s_2_1 > 0
tt - t_2_1 - 2000.000000 s_2_1 > -1993.096300
tt + 2000 s_1_2 > 0
tt - t_1_2 - 2000.000000 s_1_2 > -1993.618600
tt + 2000 s_2_2 > 0
tt - t_2_2 - 2000.000000 s_2_2 > -1988.627533
tt + 2000 s_1_3 > 0
tt - t_1_3 - 2000.000000 s_1_3 > -1992.362100
tt + 2000 s_2_3 > 0
tt - t_2_3 - 2000.000000 s_2_3 > -1988.144200
tt + 2000 s_1_4 > 0
tt - t_1_4 - 2000.000000 s_1_4 > -1986.230900
tt + 2000 s_2_4 > 0
tt - t_2_4 - 2000.000000 s_2_4 > -1979.807800
tt + 2000 s_1_5 > 0
tt - t_1_5 - 2099.552129 s_1_5 + 99.552129 s_1_2 > -1998.985200
tt + 2000 s_2_5 > 0
tt - t_2_5 - 2199.104258 s_2_5 + 199.104258 s_2_2 > -1997.364100
s_1_1 + s_2_1  = 1
s_1_2 + s_2_2  = 1
s_1_3 + s_2_3  = 1
s_1_4 + s_2_4  = 1
s_1_5 + s_2_5  = 1
t_1_1 - t_1_2 + 2000.000000 u_1_1_2 > 6.381400
t_1_2 - t_1_1 - 2000.000000 u_1_1_2 > -1995.721300
t_2_1 - t_2_2 + 2000.000000 u_2_1_2 > 11.372467
t_2_2 - t_2_1 - 2000.000000 u_2_1_2 > -1993.096300
t_1_1 - t_1_3 + 2000.000000 u_1_1_3 > 7.637900
t_1_3 - t_1_1 - 2000.000000 u_1_1_3 > -1995.721300
t_2_1 - t_2_3 + 2000.000000 u_2_1_3 > 11.855800
t_2_3 - t_2_1 - 2000.000000 u_2_1_3 > -1993.096300
t_1_1 - t_1_4 + 2000.000000 u_1_1_4 > 13.769100
t_1_4 - t_1_1 - 2000.000000 u_1_1_4 > -1995.721300
t_2_1 - t_2_4 + 2000.000000 u_2_1_4 > 20.192200
t_2_4 - t_2_1 - 2000.000000 u_2_1_4 > -1993.096300
t_1_5 - t_1_1 - 2000.000000 s_1_1 > -1986.023211
t_1_5 - t_2_1 - 2000.000000 s_2_1 > -1973.700122
t_2_5 - t_1_1 - 2000.000000 s_1_1 > -1986.023211
t_2_5 - t_2_1 - 2000.000000 s_2_1 > -1973.700122
t_1_2 - t_1_1 + 2000.000000 u_1_2_1 > 4.278700
t_1_1 - t_1_2 - 2000.000000 u_1_2_1 > -1993.618600
t_2_2 - t_2_1 + 2000.000000 u_2_2_1 > 6.903700
t_2_1 - t_2_2 - 2000.000000 u_2_2_1 > -1988.627533
t_1_2 - t_1_3 + 2000.000000 u_1_2_3 > 7.637900
t_1_3 - t_1_2 - 2000.000000 u_1_2_3 > -1993.618600
t_2_2 - t_2_3 + 2000.000000 u_2_2_3 > 11.855800
t_2_3 - t_2_2 - 2000.000000 u_2_2_3 > -1988.627533
t_1_2 - t_1_4 + 2000.000000 u_1_2_4 > 13.769100
t_1_4 - t_1_2 - 2000.000000 u_1_2_4 > -1993.618600
t_2_2 - t_2_4 + 2000.000000 u_2_2_4 > 20.192200
t_2_4 - t_2_2 - 2000.000000 u_2_2_4 > -1988.627533
t_1_5 - t_1_2 - 2000.000000 s_1_2 > -1983.920511
t_1_5 - t_2_2 - 2000.000000 s_2_2 > -1969.231356
t_2_5 - t_1_2 - 2000.000000 s_1_2 > -1983.920511
t_2_5 - t_2_2 - 2000.000000 s_2_2 > -1969.231356
t_1_3 - t_1_1 + 2000.000000 u_1_3_1 > 4.278700
t_1_1 - t_1_3 - 2000.000000 u_1_3_1 > -1992.362100
t_2_3 - t_2_1 + 2000.000000 u_2_3_1 > 6.903700
t_2_1 - t_2_3 - 2000.000000 u_2_3_1 > -1988.144200
t_1_3 - t_1_2 + 2000.000000 u_1_3_2 > 6.381400
t_1_2 - t_1_3 - 2000.000000 u_1_3_2 > -1992.362100
t_2_3 - t_2_2 + 2000.000000 u_2_3_2 > 11.372467
t_2_2 - t_2_3 - 2000.000000 u_2_3_2 > -1988.144200
t_1_3 - t_1_4 + 2000.000000 u_1_3_4 > 13.769100
t_1_4 - t_1_3 - 2000.000000 u_1_3_4 > -1992.362100
t_2_3 - t_2_4 + 2000.000000 u_2_3_4 > 20.192200
t_2_4 - t_2_3 - 2000.000000 u_2_3_4 > -1988.144200
t_1_5 - t_1_3 - 2000.000000 s_1_3 > -1982.664011
t_1_5 - t_2_3 - 2000.000000 s_2_3 > -1968.748022
t_2_5 - t_1_3 - 2000.000000 s_1_3 > -1982.664011
t_2_5 - t_2_3 - 2000.000000 s_2_3 > -1968.748022
t_1_4 - t_1_1 + 2000.000000 u_1_4_1 > 4.278700
t_1_1 - t_1_4 - 2000.000000 u_1_4_1 > -1986.230900
t_2_4 - t_2_1 + 2000.000000 u_2_4_1 > 6.903700
t_2_1 - t_2_4 - 2000.000000 u_2_4_1 > -1979.807800
t_1_4 - t_1_2 + 2000.000000 u_1_4_2 > 6.381400
t_1_2 - t_1_4 - 2000.000000 u_1_4_2 > -1986.230900
t_2_4 - t_2_2 + 2000.000000 u_2_4_2 > 11.372467
t_2_2 - t_2_4 - 2000.000000 u_2_4_2 > -1979.807800
t_1_4 - t_1_3 + 2000.000000 u_1_4_3 > 7.637900
t_1_3 - t_1_4 - 2000.000000 u_1_4_3 > -1986.230900
t_2_4 - t_2_3 + 2000.000000 u_2_4_3 > 11.855800
t_2_3 - t_2_4 - 2000.000000 u_2_4_3 > -1979.807800
t_1_5 - t_1_4 - 2000.000000 s_1_4 > -1976.532811
t_1_5 - t_2_4 - 2000.000000 s_2_4 > -1960.411622
t_2_5 - t_1_4 - 2000.000000 s_1_4 > -1976.532811
t_2_5 - t_2_4 - 2000.000000 s_2_4 > -1960.411622
t_1_5 - t_1_1 - 2000.000000 s_1_1 > -1986.023211
t_1_5 - t_2_1 - 2000.000000 s_2_1 > -1973.700122
t_2_5 - t_1_1 - 2000.000000 s_1_1 > -1986.023211
t_2_5 - t_2_1 - 2000.000000 s_2_1 > -1973.700122
t_1_5 - t_1_2 - 2000.000000 s_1_2 > -1983.920511
t_1_5 - t_2_2 - 2000.000000 s_2_2 > -1969.231356
t_2_5 - t_1_2 - 2000.000000 s_1_2 > -1983.920511
t_2_5 - t_2_2 - 2000.000000 s_2_2 > -1969.231356
t_1_5 - t_1_3 - 2000.000000 s_1_3 > -1982.664011
t_1_5 - t_2_3 - 2000.000000 s_2_3 > -1968.748022
t_2_5 - t_1_3 - 2000.000000 s_1_3 > -1982.664011
t_2_5 - t_2_3 - 2000.000000 s_2_3 > -1968.748022
t_1_5 - t_1_4 - 2000.000000 s_1_4 > -1976.532811
t_1_5 - t_2_4 - 2000.000000 s_2_4 > -1960.411622
t_2_5 - t_1_4 - 2000.000000 s_1_4 > -1976.532811
t_2_5 - t_2_4 - 2000.000000 s_2_4 > -1960.411622
Binary
s_1_1
s_2_1
s_1_2
s_2_2
s_1_3
s_2_3
s_1_4
s_2_4
s_1_5
s_2_5
u_1_1_2
u_2_1_2
u_1_1_3
u_2_1_3
u_1_1_4
u_2_1_4
u_1_2_1
u_2_2_1
u_1_2_3
u_2_2_3
u_1_2_4
u_2_2_4
u_1_3_1
u_2_3_1
u_1_3_2
u_2_3_2
u_1_3_4
u_2_3_4
u_1_4_1
u_2_4_1
u_1_4_2
u_2_4_2
u_1_4_3
u_2_4_3

End
